StudentsNr = 10;
InstructorsNr = 7;
DaysNr = 2;
SlotsPerDay = 15;
AvailabilitySlotsLenght = 3;
RoomNr = 2;
ProgrammNr = 2;
DegreeNr = 2;
RolesNr = 2;
CoursesNr = 4;
InstructorsProgramm = [{1}, {2}, {1}, {1}, {1}, {2}, {1, 2}];
InstructorRolesPerProgramm = [|{4, 5, 7}, {1, 7}|{2, 7}, {2, 6, 7}|];
InstructorsAvailability = [|1, 1, 1, 1, 1, 1, 1, 0, 1, 1, |0, 1, 1, 1, 1, 1, 1, 1, 1, 1, |0, 0, 1, 1, 1, 1, 1, 1, 0, 0, |0, 1, 1, 0, 1, 1, 0, 1, 1, 1, |1, 1, 1, 1, 0, 0, 1, 0, 0, 1, |1, 1, 1, 1, 1, 1, 1, 1, 1, 1, |0, 1, 1, 1, 0, 0, 1, 1, 1, 1|];
StudentsProgramm = [1, 1, 1, 2, 1, 2, 2, 1, 2, 2];
StudentsDegree = [2, 1, 1, 1, 2, 2, 2, 2, 1, 1];
StudentsSupervisorId = [5, 4, 1, 2, 3, 2, 2, 7, 6, 6];
StudentsCourseIds = [{4}, {}, {}, {}, {2}, {4}, {4}, {2}, {}, {}];
StudentsAvailability = [|1, 1, 1, 1, 1, 1, 1, 1, 0, 1, |1, 1, 1, 1, 1, 1, 1, 1, 1, 1, |1, 1, 1, 1, 1, 1, 0, 0, 0, 0, |1, 1, 1, 1, 1, 1, 1, 1, 1, 1, |0, 1, 1, 1, 1, 1, 1, 1, 0, 1, |1, 1, 1, 1, 1, 1, 1, 1, 1, 1, |1, 1, 1, 1, 1, 1, 0, 0, 1, 1, |1, 0, 0, 0, 1, 1, 0, 0, 1, 1, |0, 1, 1, 1, 1, 1, 1, 1, 1, 1, |1, 1, 1, 1, 1, 1, 1, 1, 1, 1|];
TheoryticalMinCard = [0, 0, 0, 0, 0, 1, 1, 0, 0, 0];
CoursesInstructorIds = [{1, 2, 3, 5}, {2, 3, 4, 7}, {4}, {1, 3, 4}];
RolesDemands = [2, 1];
RolesContinuity = [2];
ExamLen = [2, 2, 2, 2, 2, 2, 2, 2, 2, 2];
LunchTsMinLen = 0;
LunchStarts = [5..9, 19..25];
SupervisorAvailable = 5;
OptimalLunchLenght = [1, 0];
OptimalStartTs = [0, 0];
OptimalFinishTs = [0, 15];
MinimizeRooms = 400;
RolesSoftContinuity = [|1, 2|2, 0|];
SameDegreeInRoom = 0;
Mergeability = 0;
